; benchmark generated from python API
(set-info :status unknown)
(declare-datatypes ((IntState 0)) (((Mk1 (val1 Int)) (Mk2 (val2 Int)))))
 (declare-fun c_main_~y~0 () Int)
(declare-fun c_main_~x~0 () Int)
(assert
 (let (($x61 (exists ((|v_main_#t~nondet1_6_st| IntState) (val!125 Int) )(exists ((|v_main_#t~nondet1_5_st| IntState) (val!126 Int) )(let ((?x148 (+ (* 2 (val2 |v_main_#t~nondet1_6_st|)) (* 2 (val2 |v_main_#t~nondet1_5_st|)) 1)))
 (let (($x112 (not (= |v_main_#t~nondet1_5_st| (Mk1 val!126)))))
 (let (($x121 (not (= |v_main_#t~nondet1_6_st| (Mk1 val!125)))))
 (and $x121 $x112 (= ?x148 c_main_~y~0))))))
 )
 ))
 (let (($x53 (exists ((|v_main_#t~nondet0_5_st| IntState) (val!123 Int) )(exists ((|v_main_#t~nondet0_6_st| IntState) (val!124 Int) )(let ((?x148 (+ (* 2 (val2 |v_main_#t~nondet0_5_st|)) (* 2 (val2 |v_main_#t~nondet0_6_st|)) 1)))
 (let (($x112 (not (= |v_main_#t~nondet0_6_st| (Mk1 val!124)))))
 (let (($x121 (not (= |v_main_#t~nondet0_5_st| (Mk1 val!123)))))
 (and $x121 $x112 (= ?x148 c_main_~x~0))))))
 )
 ))
 (let (($x49 (exists ((|v_main_#t~nondet0_5| Int) )(let ((?x98 (* 2 |v_main_#t~nondet0_5|)))
 (let ((?x185 (+ ?x98 1)))
 (= ?x185 c_main_~x~0))))
 ))
 (let (($x23 (exists ((|v_main_#t~nondet1_5| Int) )(let ((?x98 (* 2 |v_main_#t~nondet1_5|)))
 (let ((?x185 (+ ?x98 1)))
 (= ?x185 c_main_~y~0))))
 ))
 (and (and $x23 $x49) (not (and $x53 $x61))))))))
(check-sat)
